language ESSENCE' 1.0

letting n_courses be 151
letting n_periods be 27
letting prerequisite_RelationAsSet_Explicit_1 be
        [1, 1, 1, 1, 2, 2, 2, 2, 2, 2, 3, 3, 3, 3, 3, 3, 3, 4, 4, 4, 4, 4, 5, 5, 5, 5, 5, 5, 5, 5, 6, 6, 6, 6, 6, 6, 6,
         6, 6, 6, 7, 7, 7, 7, 7, 7, 7, 7, 8, 8, 8, 8, 8, 8, 8, 9, 9, 9, 9, 10, 10, 10, 10, 10, 10, 10, 10, 10, 10, 11,
         11, 11, 11, 11, 11, 11, 12, 12, 12, 12, 12, 12, 12, 12, 13, 13, 13, 13, 13, 13, 13, 13, 13, 13, 13, 13, 14, 14,
         14, 14, 15, 15, 15, 15, 15, 15, 16, 16, 16, 16, 16, 16, 16, 16, 16, 17, 17, 17, 17, 17, 17, 17, 17, 18, 18, 18,
         18, 18, 18, 19, 19, 19, 19, 19, 19, 19, 19, 19, 20, 20, 20, 20, 20, 20, 20, 21, 21, 21, 21, 21, 21, 21, 21, 21,
         22, 22, 22, 22, 22, 23, 23, 23, 23, 23, 23, 23, 24, 24, 24, 24, 24, 24, 24, 24, 24, 25, 25, 25, 25, 25, 25, 25,
         25, 25, 25, 25, 25, 25, 25, 25, 25, 25, 25, 26, 26, 26, 26, 26, 26, 26, 27, 27, 27, 27, 27, 27, 27, 27, 27, 27,
         28, 28, 28, 28, 28, 28, 28, 28, 29, 29, 29, 29, 29, 29, 29, 30, 30, 30, 30, 31, 31, 31, 31, 32, 32, 32, 32, 32,
         32, 32, 32, 32, 33, 33, 33, 33, 33, 33, 33, 33, 33, 33, 33, 34, 34, 34, 34, 34, 35, 35, 35, 35, 35, 35, 35, 35,
         35, 35, 35, 36, 36, 36, 36, 36, 36, 36, 36, 37, 37, 37, 37, 37, 38, 38, 38, 38, 38, 38, 38, 39, 39, 39, 39, 39,
         39, 39, 39, 39, 39, 39, 39, 39, 40, 40, 40, 40, 40, 40, 41, 41, 41, 41, 41, 41, 42, 42, 42, 42, 42, 43, 43, 43,
         44, 44, 44, 44, 44, 45, 45, 45, 45, 45, 45, 46, 47, 48, 48, 48, 48, 48, 49, 49, 50, 50, 50, 51, 51, 51, 51, 52,
         52, 52, 52, 52, 52, 52, 53, 53, 53, 53, 54, 54, 54, 54, 55, 55, 55, 55, 55, 55, 55, 56, 56, 56, 56, 56, 56, 56,
         56, 57, 57, 58, 58, 58, 58, 58, 58, 58, 59, 59, 59, 60, 60, 60, 60, 60, 60, 60, 61, 61, 61, 61, 61, 62, 62, 63,
         63, 63, 63, 64, 64, 64, 64, 64, 65, 65, 66, 67, 67, 67, 68, 68, 68, 69, 70, 70, 70, 70, 70, 70, 70, 70, 70, 70,
         71, 71, 71, 71, 71, 71, 72, 72, 72, 72, 72, 73, 73, 74, 74, 74, 75, 75, 75, 75, 75, 75, 76, 76, 76, 76, 76, 77,
         77, 77, 77, 77, 77, 78, 78, 78, 78, 79, 79, 79, 80, 80, 80, 80, 80, 80, 80, 80, 81, 81, 81, 81, 81, 81, 82, 82,
         82, 82, 82, 83, 83, 83, 83, 84, 84, 84, 84, 84, 85, 85, 85, 85, 85, 85, 86, 87, 87, 87, 88, 88, 88, 88, 89, 89,
         89, 89, 90, 90, 90, 90, 91, 91, 91, 92, 92, 92, 92, 92, 92, 92, 92, 93, 93, 93, 93, 93, 94, 94, 94, 94, 94, 94,
         94, 94, 94, 94, 95, 95, 95, 96, 96, 96, 96, 96, 96, 97, 98, 98, 98, 98, 99, 99, 99, 99, 100, 101, 101, 101,
         101, 101, 101, 101, 102, 102, 102, 102, 103, 103, 103, 103, 103;
             int(1..585)]
letting prerequisite_RelationAsSet_Explicit_2 be
        [43, 49, 68, 86, 41, 53, 59, 71, 84, 93, 46, 58, 69, 78, 83, 86, 103, 53, 69, 74, 93, 99, 46, 53, 67, 68, 81,
         88, 89, 97, 43, 48, 51, 57, 66, 81, 88, 93, 97, 103, 44, 57, 78, 79, 85, 86, 92, 101, 41, 62, 75, 82, 85, 88,
         93, 53, 56, 80, 95, 43, 47, 49, 50, 52, 54, 56, 76, 97, 98, 41, 45, 62, 64, 80, 85, 91, 40, 44, 49, 54, 60, 72,
         77, 80, 47, 54, 62, 63, 66, 76, 77, 84, 85, 87, 92, 96, 41, 49, 73, 83, 61, 69, 72, 74, 90, 94, 48, 49, 52, 58,
         63, 77, 83, 89, 96, 42, 58, 59, 68, 80, 82, 89, 96, 45, 61, 76, 83, 99, 103, 42, 43, 46, 48, 65, 71, 77, 88,
         90, 42, 44, 51, 52, 70, 76, 99, 43, 49, 58, 68, 71, 73, 82, 84, 102, 40, 85, 87, 94, 96, 40, 43, 55, 66, 68,
         87, 94, 42, 49, 51, 53, 57, 76, 77, 101, 102, 43, 45, 51, 52, 53, 54, 55, 58, 63, 66, 68, 80, 95, 98, 99, 100,
         102, 103, 60, 69, 71, 79, 83, 90, 98, 47, 51, 52, 59, 61, 88, 91, 93, 95, 97, 52, 64, 74, 78, 83, 85, 94, 100,
         54, 63, 66, 88, 89, 92, 98, 72, 76, 81, 91, 47, 48, 49, 78, 53, 67, 78, 81, 86, 91, 93, 97, 101, 43, 45, 51,
         57, 64, 69, 76, 85, 87, 90, 99, 48, 50, 74, 75, 89, 50, 55, 57, 62, 66, 69, 70, 76, 84, 89, 99, 53, 57, 61, 68,
         78, 81, 93, 101, 44, 61, 81, 82, 102, 68, 73, 76, 90, 92, 97, 100, 40, 44, 55, 74, 82, 84, 86, 87, 90, 93, 100,
         102, 103, 114, 115, 129, 133, 137, 143, 113, 117, 125, 132, 142, 149, 116, 121, 136, 143, 146, 107, 109, 135,
         120, 134, 139, 149, 150, 112, 119, 122, 129, 135, 137, 126, 144, 109, 119, 121, 127, 129, 112, 147, 119, 135,
         138, 119, 126, 149, 150, 125, 126, 134, 141, 142, 145, 149, 113, 115, 116, 149, 106, 110, 131, 143, 116, 117,
         125, 134, 135, 144, 147, 106, 107, 111, 129, 131, 138, 139, 151, 111, 135, 107, 109, 118, 129, 138, 145, 146,
         117, 125, 145, 116, 127, 129, 135, 136, 145, 148, 110, 113, 119, 124, 142, 106, 148, 114, 122, 144, 145, 104,
         112, 116, 130, 139, 120, 138, 147, 110, 123, 143, 116, 133, 140, 127, 110, 111, 112, 113, 131, 132, 134, 137,
         138, 144, 109, 113, 118, 121, 126, 147, 112, 114, 132, 133, 140, 125, 141, 110, 127, 148, 108, 118, 119, 128,
         132, 145, 111, 112, 123, 124, 142, 106, 113, 128, 130, 144, 146, 119, 120, 130, 148, 111, 121, 136, 111, 121,
         126, 133, 135, 139, 147, 149, 104, 111, 118, 121, 124, 138, 105, 107, 110, 116, 141, 106, 140, 146, 151, 111,
         127, 135, 137, 150, 109, 113, 133, 137, 144, 146, 113, 113, 126, 142, 108, 111, 127, 131, 107, 114, 115, 145,
         107, 110, 125, 143, 109, 135, 149, 110, 113, 114, 119, 123, 131, 133, 135, 111, 116, 127, 146, 151, 106, 110,
         111, 114, 118, 119, 127, 141, 147, 150, 133, 135, 149, 113, 114, 130, 137, 142, 148, 139, 104, 121, 137, 150,
         109, 119, 134, 145, 137, 104, 108, 112, 117, 142, 146, 150, 106, 110, 132, 137, 105, 109, 115, 134, 142;
             int(1..585)]
letting course_load_Function1D be
        [4, 5, 8, 4, 3, 8, 7, 6, 4, 7, 5, 3, 3, 4, 3, 4, 7, 6, 5, 8, 7, 8, 3, 4, 7, 6, 8, 5, 6, 8, 8, 4, 6, 8, 9, 4, 8,
         4, 6, 5, 8, 5, 3, 3, 4, 8, 5, 6, 3, 6, 3, 5, 7, 4, 8, 3, 5, 3, 4, 6, 9, 5, 6, 3, 3, 6, 3, 4, 4, 6, 5, 4, 7, 8,
         4, 4, 7, 3, 5, 8, 3, 4, 3, 3, 7, 4, 6, 7, 7, 4, 6, 3, 5, 6, 8, 5, 6, 4, 3, 5, 4, 9, 4, 7, 3, 7, 8, 6, 8, 7, 4,
         7, 8, 3, 6, 3, 8, 4, 3, 8, 4, 4, 8, 4, 3, 7, 3, 8, 6, 6, 4, 7, 3, 6, 4, 4, 5, 3, 3, 7, 4, 4, 6, 7, 3, 4, 3, 8,
         5, 7, 4;
             int(1..151)]
letting load_per_period_ub be 36
letting load_per_period_lb be 4
letting courses_per_period_ub be 9
letting courses_per_period_lb be 5
letting fin1 be 585
letting fin2 be 151
letting fin3 be 9
